StudentsNr = 10;
InstructorsNr = 99;
DaysNr = 1;
SlotsPerDay = 20;
AvailabilitySlotsLenght = 5;
RoomNr = 1;
ProgrammNr = 2;
DegreeNr = 2;
RolesNr = 3;
CoursesNr = 5;
InstructorsProgramm = [{1}, {1}, {2}, {1}, {1, 2}, {2}, {2}, {1}, {2}, {1, 2}, {1, 2}, {1}, {1}, {1, 2}, {1}, {1, 2}, {1, 2}, {2}, {2}, {2}, {2}, {1, 2}, {1, 2}, {1, 2}, {2}, {2}, {2}, {2}, {1}, {2}, {1}, {1}, {2}, {1}, {1, 2}, {1}, {1, 2}, {2}, {2}, {1}, {1}, {2}, {1}, {2}, {1}, {1}, {2}, {2}, {1}, {1}, {1, 2}, {1}, {1}, {1}, {1}, {2}, {2}, {1, 2}, {1}, {1}, {1}, {1, 2}, {2}, {1, 2}, {1, 2}, {2}, {1, 2}, {1, 2}, {1, 2}, {1}, {2}, {1, 2}, {2}, {1}, {2}, {1, 2}, {1, 2}, {1}, {1, 2}, {1, 2}, {1, 2}, {1, 2}, {1}, {2}, {1}, {2}, {1, 2}, {1, 2}, {1, 2}, {1}, {1}, {1}, {1, 2}, {1}, {1, 2}, {1}, {2}, {1}, {2}];
InstructorRolesPerProgramm = [|{1, 12, 34, 37, 40, 43, 49, 50, 53, 55, 62, 64, 68, 76, 79, 80, 82, 88, 90, 92, 93}, {4, 8, 12, 13, 14, 15, 17, 22, 24, 29, 31, 34, 35, 43, 49, 50, 51, 53, 59, 61, 69, 72, 74, 76, 80, 83, 85, 87, 91}, {1, 4, 10, 11, 15, 17, 35, 36, 40, 51, 52, 53, 55, 62, 70, 74, 78, 79, 85, 87, 91, 92, 93}|{6, 26, 27, 37, 42, 48, 56, 57, 62, 64, 66, 68, 71, 76, 79, 80, 82, 86, 88, 93}, {3, 6, 7, 9, 14, 17, 18, 19, 22, 24, 28, 30, 35, 42, 47, 48, 51, 63, 69, 72, 73, 76, 80, 86, 87}, {3, 7, 10, 11, 17, 19, 20, 26, 27, 30, 33, 35, 51, 57, 62, 63, 66, 75, 79, 86, 87, 93}|];
InstructorsAvailability = [|0, 1, 1, 1, |0, 1, 1, 1, |0, 0, 0, 1, |0, 1, 1, 1, |0, 1, 0, 1, |1, 1, 1, 1, |0, 1, 1, 1, |0, 0, 0, 0, |0, 0, 0, 0, |1, 1, 1, 0, |1, 1, 0, 1, |1, 1, 1, 1, |0, 1, 1, 1, |1, 1, 1, 1, |0, 1, 1, 1, |1, 0, 1, 0, |1, 1, 0, 1, |0, 1, 1, 1, |0, 0, 1, 1, |1, 1, 1, 1, |1, 1, 1, 1, |1, 1, 1, 1, |0, 1, 1, 1, |1, 1, 1, 1, |0, 1, 1, 1, |0, 1, 0, 1, |0, 0, 0, 0, |0, 1, 0, 1, |0, 0, 1, 1, |0, 0, 1, 1, |1, 0, 1, 0, |1, 1, 1, 1, |1, 1, 1, 1, |0, 1, 0, 0, |1, 1, 1, 1, |0, 0, 1, 1, |1, 1, 1, 1, |0, 0, 1, 1, |0, 1, 1, 1, |0, 1, 1, 1, |1, 1, 0, 0, |1, 1, 1, 0, |1, 1, 1, 0, |0, 1, 0, 1, |1, 1, 1, 1, |0, 0, 0, 1, |0, 0, 1, 1, |1, 1, 1, 1, |1, 1, 1, 1, |1, 1, 0, 1, |0, 0, 1, 1, |0, 0, 1, 1, |1, 1, 1, 1, |0, 1, 1, 1, |1, 0, 1, 1, |1, 0, 1, 1, |1, 1, 0, 1, |0, 0, 1, 1, |0, 0, 0, 1, |0, 1, 1, 1, |0, 1, 1, 1, |1, 1, 1, 1, |0, 0, 0, 0, |1, 1, 1, 1, |1, 0, 1, 1, |1, 1, 0, 0, |0, 1, 1, 0, |0, 0, 0, 1, |0, 1, 0, 1, |1, 1, 1, 1, |1, 1, 1, 1, |0, 1, 0, 1, |0, 1, 0, 0, |0, 1, 1, 1, |1, 1, 1, 1, |1, 1, 1, 1, |1, 1, 1, 1, |0, 0, 1, 1, |1, 1, 1, 0, |1, 1, 1, 1, |1, 1, 0, 1, |1, 0, 1, 1, |0, 0, 1, 0, |1, 1, 0, 0, |0, 0, 1, 1, |0, 0, 1, 1, |1, 0, 1, 1, |1, 1, 1, 1, |1, 0, 1, 1, |0, 1, 1, 1, |0, 0, 1, 1, |1, 1, 1, 1, |1, 1, 1, 1, |0, 0, 1, 1, |0, 1, 1, 1, |1, 0, 1, 0, |1, 1, 0, 0, |1, 0, 0, 0, |1, 1, 1, 1|];
StudentsProgramm = [2, 1, 2, 2, 1, 2, 2, 1, 2, 2];
StudentsDegree = [1, 1, 1, 2, 1, 2, 1, 2, 2, 1];
StudentsSupervisorId = [11, 32, 66, 75, 43, 24, 24, 51, 77, 17];
StudentsCourseIds = [{2}, {3}, {1}, {3, 4}, {3}, {1, 5}, {2}, {1, 3}, {1, 4}, {4}];
StudentsAvailability = [|0, 0, 0, 1, |1, 1, 1, 1, |0, 0, 0, 0, |0, 0, 0, 1, |0, 1, 1, 1, |1, 1, 1, 1, |1, 1, 1, 0, |0, 1, 1, 1, |1, 1, 1, 1, |1, 0, 1, 1|];
TheoryticalMinCard = [0, 1, 0, 0, 0, 0, 0, 0, 1, 0];
CoursesInstructorIds = [{1, 4, 5, 6, 8, 9, 10, 13, 14, 15, 17, 18, 19, 20, 21, 24, 28, 29, 30, 31, 33, 34, 40, 41, 42, 44, 45, 48, 49, 50, 54, 61, 63, 64, 66, 67, 68, 69, 70, 71, 73, 74, 76, 79, 81, 83, 86, 87, 88, 90, 91, 92, 94, 96, 97, 98, 99}, {1, 4, 8, 14, 15, 16, 20, 24, 29, 32, 33, 34, 35, 36, 37, 40, 48, 49, 59, 64, 68, 72, 73, 74, 76, 78, 85, 86, 91, 92, 93, 99}, {1, 2, 3, 6, 9, 12, 17, 20, 22, 25, 29, 31, 33, 34, 37, 38, 39, 42, 43, 44, 45, 46, 47, 48, 50, 51, 52, 56, 57, 58, 59, 62, 63, 66, 67, 68, 69, 70, 72, 73, 74, 75, 77, 78, 80, 81, 85, 86, 88, 89, 90, 91}, {5, 18, 25, 28, 31, 42, 52, 61, 67, 73, 75, 81, 84, 85, 95}, {5, 6, 9, 11, 14, 16, 17, 18, 19, 22, 23, 25, 27, 29, 30, 31, 34, 35, 39, 42, 46, 47, 50, 51, 53, 55, 58, 59, 62, 63, 64, 65, 67, 69, 70, 71, 72, 73, 74, 76, 79, 81, 84, 86, 89, 92, 93, 94, 96, 97, 99}];
RolesDemands = [10, 3, 3];
RolesContinuity = [];
ExamLen = [1, 1, 1, 1, 1, 1, 1, 1, 1, 1];
LunchTsMinLen = 1;
LunchStarts = [10..15];
SupervisorAvailable = 0;
OptimalLunchLenght = [2, 1];
OptimalStartTs = [1, 0];
OptimalFinishTs = [1, 20];
MinimizeRooms = 200;
RolesSoftContinuity = [|1, 2, 3|0, 0, 3|];
SameDegreeInRoom = 0;
Mergeability = 1;
